\ Model FN
\ LP format - for model browsing. Use MPS format to capture full model detail.
Minimize
  - 233.76 wPDL-LIS - 245.76 wPDL-OPO - 156 wPDL-FNC - 727.2 wPDL-YTO
   - 622.08 wPDL-BOS - 233.76 wLIS-PDL - 53.76 wLIS-OPO - 155.68 wLIS-FNC
   - 926.4 wLIS-YTO - 828.32 wLIS-BOS - 245.76 wOPO-PDL - 53.76 wOPO-LIS
   - 199.04 wOPO-FNC - 907.36 wOPO-YTO - 812.96 wOPO-BOS - 156 wFNC-PDL
   - 155.68 wFNC-LIS - 199.04 wFNC-OPO - 882.4 wFNC-YTO - 776.16 wFNC-BOS
   - 727.2 wYTO-PDL - 926.4 wYTO-LIS - 907.36 wYTO-OPO - 882.4 wYTO-FNC
   - 110.56 wYTO-BOS - 622.08 wBOS-PDL - 828.32 wBOS-LIS - 812.96 wBOS-OPO
   - 776.16 wBOS-FNC - 110.56 wBOS-YTO - 233.76 xPDL-LIS - 245.76 xPDL-OPO
   - 156 xPDL-FNC - 727.2 xPDL-YTO - 622.08 xPDL-BOS - 233.76 xLIS-PDL
   - 53.76 xLIS-OPO - 155.68 xLIS-FNC - 926.4 xLIS-YTO - 828.32 xLIS-BOS
   - 245.76 xOPO-PDL - 53.76 xOPO-LIS - 199.04 xOPO-FNC - 907.36 xOPO-YTO
   - 812.96 xOPO-BOS - 156 xFNC-PDL - 155.68 xFNC-LIS - 199.04 xFNC-OPO
   - 882.4 xFNC-YTO - 776.16 xFNC-BOS - 727.2 xYTO-PDL - 926.4 xYTO-LIS
   - 907.36 xYTO-OPO - 882.4 xYTO-FNC - 110.56 xYTO-BOS - 622.08 xBOS-PDL
   - 828.32 xBOS-LIS - 812.96 xBOS-OPO - 776.16 xBOS-FNC - 110.56 xBOS-YTO
   + 42076.8 zPDL-LIS-A310 + 44236.8 zPDL-OPO-A310 + 28080 zPDL-FNC-A310
   + 130896 zPDL-YTO-A310 + 111974.4 zPDL-BOS-A310 + 42076.8 zLIS-PDL-A310
   + 9676.8 zLIS-OPO-A310 + 28022.4 zLIS-FNC-A310 + 166752 zLIS-YTO-A310
   + 149097.6 zLIS-BOS-A310 + 44236.8 zOPO-PDL-A310 + 9676.8 zOPO-LIS-A310
   + 35827.2 zOPO-FNC-A310 + 163324.8 zOPO-YTO-A310
   + 146332.8 zOPO-BOS-A310 + 28080 zFNC-PDL-A310 + 28022.4 zFNC-LIS-A310
   + 35827.2 zFNC-OPO-A310 + 158832 zFNC-YTO-A310 + 139708.8 zFNC-BOS-A310
   + 130896 zYTO-PDL-A310 + 166752 zYTO-LIS-A310 + 163324.8 zYTO-OPO-A310
   + 158832 zYTO-FNC-A310 + 19900.8 zYTO-BOS-A310 + 111974.4 zBOS-PDL-A310
   + 149097.6 zBOS-LIS-A310 + 146332.8 zBOS-OPO-A310
   + 139708.8 zBOS-FNC-A310 + 19900.8 zBOS-YTO-A310 + 25713.6 zPDL-LIS-A320
   + 27033.6 zPDL-OPO-A320 + 17160 zPDL-FNC-A320 + 79992 zPDL-YTO-A320
   + 68428.8 zPDL-BOS-A320 + 25713.6 zLIS-PDL-A320 + 5913.6 zLIS-OPO-A320
   + 17124.8 zLIS-FNC-A320 + 101904 zLIS-YTO-A320 + 91115.2 zLIS-BOS-A320
   + 27033.6 zOPO-PDL-A320 + 5913.6 zOPO-LIS-A320 + 21894.4 zOPO-FNC-A320
   + 99809.6 zOPO-YTO-A320 + 89425.6 zOPO-BOS-A320 + 17160 zFNC-PDL-A320
   + 17124.8 zFNC-LIS-A320 + 21894.4 zFNC-OPO-A320 + 97064 zFNC-YTO-A320
   + 85377.6 zFNC-BOS-A320 + 79992 zYTO-PDL-A320 + 101904 zYTO-LIS-A320
   + 99809.6 zYTO-OPO-A320 + 97064 zYTO-FNC-A320 + 12161.6 zYTO-BOS-A320
   + 68428.8 zBOS-PDL-A320 + 91115.2 zBOS-LIS-A320 + 89425.6 zBOS-OPO-A320
   + 85377.6 zBOS-FNC-A320 + 12161.6 zBOS-YTO-A320
Subject To
 qnorPDL-PDL: wPDL-PDL + xPDL-PDL <= 0
 qnorPDL-LIS: wPDL-LIS + xPDL-LIS <= 2509
 qnorPDL-OPO: wPDL-OPO + xPDL-OPO <= 1080
 qnorPDL-FNC: wPDL-FNC + xPDL-FNC <= 558
 qnorPDL-YTO: wPDL-YTO + xPDL-YTO <= 770
 qnorPDL-BOS: wPDL-BOS + xPDL-BOS <= 713
 qnorLIS-PDL: wLIS-PDL + xLIS-PDL <= 2509
 qnorLIS-LIS: wLIS-LIS + xLIS-LIS <= 0
 qnorLIS-OPO: wLIS-OPO + xLIS-OPO <= 216
 qnorLIS-FNC: wLIS-FNC + xLIS-FNC <= 112
 qnorLIS-YTO: wLIS-YTO + xLIS-YTO <= 360
 qnorLIS-BOS: wLIS-BOS + xLIS-BOS <= 333
 qnorOPO-PDL: wOPO-PDL + xOPO-PDL <= 1080
 qnorOPO-LIS: wOPO-LIS + xOPO-LIS <= 216
 qnorOPO-OPO: wOPO-OPO + xOPO-OPO <= 0
 qnorOPO-FNC: wOPO-FNC + xOPO-FNC <= 78
 qnorOPO-YTO: wOPO-YTO + xOPO-YTO <= 46
 qnorOPO-BOS: wOPO-BOS + xOPO-BOS <= 43
 qnorFNC-PDL: wFNC-PDL + xFNC-PDL <= 558
 qnorFNC-LIS: wFNC-LIS + xFNC-LIS <= 112
 qnorFNC-OPO: wFNC-OPO + xFNC-OPO <= 78
 qnorFNC-FNC: wFNC-FNC + xFNC-FNC <= 0
 qnorFNC-YTO: wFNC-YTO + xFNC-YTO <= 32
 qnorFNC-BOS: wFNC-BOS + xFNC-BOS <= 30
 qnorYTO-PDL: wYTO-PDL + xYTO-PDL <= 770
 qnorYTO-LIS: wYTO-LIS + xYTO-LIS <= 360
 qnorYTO-OPO: wYTO-OPO + xYTO-OPO <= 46
 qnorYTO-FNC: wYTO-FNC + xYTO-FNC <= 32
 qnorYTO-YTO: wYTO-YTO + xYTO-YTO <= 0
 qnorYTO-BOS: wYTO-BOS + xYTO-BOS <= 70
 qnorBOS-PDL: wBOS-PDL + xBOS-PDL <= 713
 qnorBOS-LIS: wBOS-LIS + xBOS-LIS <= 333
 qnorBOS-OPO: wBOS-OPO + xBOS-OPO <= 43
 qnorBOS-FNC: wBOS-FNC + xBOS-FNC <= 30
 qnorBOS-YTO: wBOS-YTO + xBOS-YTO <= 70
 qnorBOS-BOS: wBOS-BOS + xBOS-BOS <= 0
 qtransPDL-PDL: wPDL-PDL <= 0
 qtransPDL-LIS: wPDL-LIS <= 0
 qtransPDL-OPO: wPDL-OPO <= 0
 qtransPDL-FNC: wPDL-FNC <= 0
 qtransPDL-YTO: wPDL-YTO <= 0
 qtransPDL-BOS: wPDL-BOS <= 0
 qtransLIS-PDL: wLIS-PDL <= 0
 qtransLIS-LIS: wLIS-LIS <= 0
 qtransLIS-OPO: wLIS-OPO <= 216
 qtransLIS-FNC: wLIS-FNC <= 112
 qtransLIS-YTO: wLIS-YTO <= 360
 qtransLIS-BOS: wLIS-BOS <= 333
 qtransOPO-PDL: wOPO-PDL <= 0
 qtransOPO-LIS: wOPO-LIS <= 216
 qtransOPO-OPO: wOPO-OPO <= 0
 qtransOPO-FNC: wOPO-FNC <= 78
 qtransOPO-YTO: wOPO-YTO <= 46
 qtransOPO-BOS: wOPO-BOS <= 43
 qtransFNC-PDL: wFNC-PDL <= 0
 qtransFNC-LIS: wFNC-LIS <= 112
 qtransFNC-OPO: wFNC-OPO <= 78
 qtransFNC-FNC: wFNC-FNC <= 0
 qtransFNC-YTO: wFNC-YTO <= 32
 qtransFNC-BOS: wFNC-BOS <= 30
 qtransYTO-PDL: wYTO-PDL <= 0
 qtransYTO-LIS: wYTO-LIS <= 360
 qtransYTO-OPO: wYTO-OPO <= 46
 qtransYTO-FNC: wYTO-FNC <= 32
 qtransYTO-YTO: wYTO-YTO <= 0
 qtransYTO-BOS: wYTO-BOS <= 70
 qtransBOS-PDL: wBOS-PDL <= 0
 qtransBOS-LIS: wBOS-LIS <= 333
 qtransBOS-OPO: wBOS-OPO <= 43
 qtransBOS-FNC: wBOS-FNC <= 30
 qtransBOS-YTO: wBOS-YTO <= 70
 qtransBOS-BOS: wBOS-BOS <= 0
 CapacityPDL-PDL: 2 wPDL-PDL + wPDL-LIS + wPDL-OPO + wPDL-FNC + wPDL-YTO
   + wPDL-BOS + wLIS-PDL + wOPO-PDL + wFNC-PDL + wYTO-PDL + wBOS-PDL
   + xPDL-PDL - 192 zPDL-PDL-A310 - 128 zPDL-PDL-A320 <= 0
 CapacityPDL-LIS: wPDL-LIS + wLIS-LIS + wOPO-LIS + wFNC-LIS + wYTO-LIS
   + wBOS-LIS + xPDL-LIS - 192 zPDL-LIS-A310 - 128 zPDL-LIS-A320 <= 0
 CapacityPDL-OPO: wPDL-OPO + wLIS-OPO + wOPO-OPO + wFNC-OPO + wYTO-OPO
   + wBOS-OPO + xPDL-OPO - 192 zPDL-OPO-A310 - 128 zPDL-OPO-A320 <= 0
 CapacityPDL-FNC: wPDL-FNC + wLIS-FNC + wOPO-FNC + wFNC-FNC + wYTO-FNC
   + wBOS-FNC + xPDL-FNC - 192 zPDL-FNC-A310 - 128 zPDL-FNC-A320 <= 0
 CapacityPDL-YTO: wPDL-YTO + wLIS-YTO + wOPO-YTO + wFNC-YTO + wYTO-YTO
   + wBOS-YTO + xPDL-YTO - 192 zPDL-YTO-A310 - 128 zPDL-YTO-A320 <= 0
 CapacityPDL-BOS: wPDL-BOS + wLIS-BOS + wOPO-BOS + wFNC-BOS + wYTO-BOS
   + wBOS-BOS + xPDL-BOS - 192 zPDL-BOS-A310 - 128 zPDL-BOS-A320 <= 0
 CapacityLIS-PDL: wLIS-PDL + wLIS-LIS + wLIS-OPO + wLIS-FNC + wLIS-YTO
   + wLIS-BOS + xLIS-PDL - 192 zLIS-PDL-A310 - 128 zLIS-PDL-A320 <= 0
 CapacityLIS-LIS: xLIS-LIS - 192 zLIS-LIS-A310 - 128 zLIS-LIS-A320 <= 0
 CapacityLIS-OPO: xLIS-OPO - 192 zLIS-OPO-A310 - 128 zLIS-OPO-A320 <= 0
 CapacityLIS-FNC: xLIS-FNC - 192 zLIS-FNC-A310 - 128 zLIS-FNC-A320 <= 0
 CapacityLIS-YTO: xLIS-YTO - 192 zLIS-YTO-A310 - 128 zLIS-YTO-A320 <= 0
 CapacityLIS-BOS: xLIS-BOS - 192 zLIS-BOS-A310 - 128 zLIS-BOS-A320 <= 0
 CapacityOPO-PDL: wOPO-PDL + wOPO-LIS + wOPO-OPO + wOPO-FNC + wOPO-YTO
   + wOPO-BOS + xOPO-PDL - 192 zOPO-PDL-A310 - 128 zOPO-PDL-A320 <= 0
 CapacityOPO-LIS: xOPO-LIS - 192 zOPO-LIS-A310 - 128 zOPO-LIS-A320 <= 0
 CapacityOPO-OPO: xOPO-OPO - 192 zOPO-OPO-A310 - 128 zOPO-OPO-A320 <= 0
 CapacityOPO-FNC: xOPO-FNC - 192 zOPO-FNC-A310 - 128 zOPO-FNC-A320 <= 0
 CapacityOPO-YTO: xOPO-YTO - 192 zOPO-YTO-A310 - 128 zOPO-YTO-A320 <= 0
 CapacityOPO-BOS: xOPO-BOS - 192 zOPO-BOS-A310 - 128 zOPO-BOS-A320 <= 0
 CapacityFNC-PDL: wFNC-PDL + wFNC-LIS + wFNC-OPO + wFNC-FNC + wFNC-YTO
   + wFNC-BOS + xFNC-PDL - 192 zFNC-PDL-A310 - 128 zFNC-PDL-A320 <= 0
 CapacityFNC-LIS: xFNC-LIS - 192 zFNC-LIS-A310 - 128 zFNC-LIS-A320 <= 0
 CapacityFNC-OPO: xFNC-OPO - 192 zFNC-OPO-A310 - 128 zFNC-OPO-A320 <= 0
 CapacityFNC-FNC: xFNC-FNC - 192 zFNC-FNC-A310 - 128 zFNC-FNC-A320 <= 0
 CapacityFNC-YTO: xFNC-YTO - 192 zFNC-YTO-A310 - 128 zFNC-YTO-A320 <= 0
 CapacityFNC-BOS: xFNC-BOS - 192 zFNC-BOS-A310 - 128 zFNC-BOS-A320 <= 0
 CapacityYTO-PDL: wYTO-PDL + wYTO-LIS + wYTO-OPO + wYTO-FNC + wYTO-YTO
   + wYTO-BOS + xYTO-PDL - 192 zYTO-PDL-A310 - 128 zYTO-PDL-A320 <= 0
 CapacityYTO-LIS: xYTO-LIS - 192 zYTO-LIS-A310 - 128 zYTO-LIS-A320 <= 0
 CapacityYTO-OPO: xYTO-OPO - 192 zYTO-OPO-A310 - 128 zYTO-OPO-A320 <= 0
 CapacityYTO-FNC: xYTO-FNC - 192 zYTO-FNC-A310 - 128 zYTO-FNC-A320 <= 0
 CapacityYTO-YTO: xYTO-YTO - 192 zYTO-YTO-A310 - 128 zYTO-YTO-A320 <= 0
 CapacityYTO-BOS: xYTO-BOS - 192 zYTO-BOS-A310 - 128 zYTO-BOS-A320 <= 0
 CapacityBOS-PDL: wBOS-PDL + wBOS-LIS + wBOS-OPO + wBOS-FNC + wBOS-YTO
   + wBOS-BOS + xBOS-PDL - 192 zBOS-PDL-A310 - 128 zBOS-PDL-A320 <= 0
 CapacityBOS-LIS: xBOS-LIS - 192 zBOS-LIS-A310 - 128 zBOS-LIS-A320 <= 0
 CapacityBOS-OPO: xBOS-OPO - 192 zBOS-OPO-A310 - 128 zBOS-OPO-A320 <= 0
 CapacityBOS-FNC: xBOS-FNC - 192 zBOS-FNC-A310 - 128 zBOS-FNC-A320 <= 0
 CapacityBOS-YTO: xBOS-YTO - 192 zBOS-YTO-A310 - 128 zBOS-YTO-A320 <= 0
 CapacityBOS-BOS: xBOS-BOS - 192 zBOS-BOS-A310 - 128 zBOS-BOS-A320 <= 0
 ContinuityPDLA310: zPDL-LIS-A310 + zPDL-OPO-A310 + zPDL-FNC-A310
   + zPDL-YTO-A310 + zPDL-BOS-A310 - zLIS-PDL-A310 - zOPO-PDL-A310
   - zFNC-PDL-A310 - zYTO-PDL-A310 - zBOS-PDL-A310 = 0
 ContinuityLISA310: - zPDL-LIS-A310 + zLIS-PDL-A310 + zLIS-OPO-A310
   + zLIS-FNC-A310 + zLIS-YTO-A310 + zLIS-BOS-A310 - zOPO-LIS-A310
   - zFNC-LIS-A310 - zYTO-LIS-A310 - zBOS-LIS-A310 = 0
 ContinuityOPOA310: - zPDL-OPO-A310 - zLIS-OPO-A310 + zOPO-PDL-A310
   + zOPO-LIS-A310 + zOPO-FNC-A310 + zOPO-YTO-A310 + zOPO-BOS-A310
   - zFNC-OPO-A310 - zYTO-OPO-A310 - zBOS-OPO-A310 = 0
 ContinuityFNCA310: - zPDL-FNC-A310 - zLIS-FNC-A310 - zOPO-FNC-A310
   + zFNC-PDL-A310 + zFNC-LIS-A310 + zFNC-OPO-A310 + zFNC-YTO-A310
   + zFNC-BOS-A310 - zYTO-FNC-A310 - zBOS-FNC-A310 = 0
 ContinuityYTOA310: - zPDL-YTO-A310 - zLIS-YTO-A310 - zOPO-YTO-A310
   - zFNC-YTO-A310 + zYTO-PDL-A310 + zYTO-LIS-A310 + zYTO-OPO-A310
   + zYTO-FNC-A310 + zYTO-BOS-A310 - zBOS-YTO-A310 = 0
 ContinuityBOSA310: - zPDL-BOS-A310 - zLIS-BOS-A310 - zOPO-BOS-A310
   - zFNC-BOS-A310 - zYTO-BOS-A310 + zBOS-PDL-A310 + zBOS-LIS-A310
   + zBOS-OPO-A310 + zBOS-FNC-A310 + zBOS-YTO-A310 = 0
 ContinuityPDLA320: zPDL-LIS-A320 + zPDL-OPO-A320 + zPDL-FNC-A320
   + zPDL-YTO-A320 + zPDL-BOS-A320 - zLIS-PDL-A320 - zOPO-PDL-A320
   - zFNC-PDL-A320 - zYTO-PDL-A320 - zBOS-PDL-A320 = 0
 ContinuityLISA320: - zPDL-LIS-A320 + zLIS-PDL-A320 + zLIS-OPO-A320
   + zLIS-FNC-A320 + zLIS-YTO-A320 + zLIS-BOS-A320 - zOPO-LIS-A320
   - zFNC-LIS-A320 - zYTO-LIS-A320 - zBOS-LIS-A320 = 0
 ContinuityOPOA320: - zPDL-OPO-A320 - zLIS-OPO-A320 + zOPO-PDL-A320
   + zOPO-LIS-A320 + zOPO-FNC-A320 + zOPO-YTO-A320 + zOPO-BOS-A320
   - zFNC-OPO-A320 - zYTO-OPO-A320 - zBOS-OPO-A320 = 0
 ContinuityFNCA320: - zPDL-FNC-A320 - zLIS-FNC-A320 - zOPO-FNC-A320
   + zFNC-PDL-A320 + zFNC-LIS-A320 + zFNC-OPO-A320 + zFNC-YTO-A320
   + zFNC-BOS-A320 - zYTO-FNC-A320 - zBOS-FNC-A320 = 0
 ContinuityYTOA320: - zPDL-YTO-A320 - zLIS-YTO-A320 - zOPO-YTO-A320
   - zFNC-YTO-A320 + zYTO-PDL-A320 + zYTO-LIS-A320 + zYTO-OPO-A320
   + zYTO-FNC-A320 + zYTO-BOS-A320 - zBOS-YTO-A320 = 0
 ContinuityBOSA320: - zPDL-BOS-A320 - zLIS-BOS-A320 - zOPO-BOS-A320
   - zFNC-BOS-A320 - zYTO-BOS-A320 + zBOS-PDL-A320 + zBOS-LIS-A320
   + zBOS-OPO-A320 + zBOS-FNC-A320 + zBOS-YTO-A320 = 0
 ACProductivityA310: 0.3333333333333333 zPDL-PDL-A310
   + 1.956666666666667 zPDL-LIS-A310 + 2.04 zPDL-OPO-A310
   + 1.416666666666667 zPDL-FNC-A310 + 5.383333333333333 zPDL-YTO-A310
   + 4.653333333333333 zPDL-BOS-A310 + 1.956666666666667 zLIS-PDL-A310
   + 0.3333333333333333 zLIS-LIS-A310 + 0.7066666666666667 zLIS-OPO-A310
   + 1.414444444444444 zLIS-FNC-A310 + 6.766666666666667 zLIS-YTO-A310
   + 6.085555555555556 zLIS-BOS-A310 + 2.04 zOPO-PDL-A310
   + 0.7066666666666667 zOPO-LIS-A310 + 0.3333333333333333 zOPO-OPO-A310
   + 1.715555555555556 zOPO-FNC-A310 + 6.634444444444444 zOPO-YTO-A310
   + 5.978888888888888 zOPO-BOS-A310 + 1.416666666666667 zFNC-PDL-A310
   + 1.414444444444444 zFNC-LIS-A310 + 1.715555555555556 zFNC-OPO-A310
   + 0.3333333333333333 zFNC-FNC-A310 + 6.461111111111111 zFNC-YTO-A310
   + 5.723333333333333 zFNC-BOS-A310 + 5.383333333333333 zYTO-PDL-A310
   + 6.766666666666667 zYTO-LIS-A310 + 6.634444444444444 zYTO-OPO-A310
   + 6.461111111111111 zYTO-FNC-A310 + 0.3333333333333333 zYTO-YTO-A310
   + 1.101111111111111 zYTO-BOS-A310 + 4.653333333333333 zBOS-PDL-A310
   + 6.085555555555556 zBOS-LIS-A310 + 5.978888888888888 zBOS-OPO-A310
   + 5.723333333333333 zBOS-FNC-A310 + 1.101111111111111 zBOS-YTO-A310
   + 0.3333333333333333 zBOS-BOS-A310 <= 196
 ACProductivityA320: 0.2 zPDL-PDL-A320 + 1.879310344827586 zPDL-LIS-A320
   + 1.96551724137931 zPDL-OPO-A320 + 1.320689655172414 zPDL-FNC-A320
   + 5.424137931034483 zPDL-YTO-A320 + 4.66896551724138 zPDL-BOS-A320
   + 1.879310344827586 zLIS-PDL-A320 + 0.2 zLIS-LIS-A320
   + 0.5862068965517242 zLIS-OPO-A320 + 1.318390804597701 zLIS-FNC-A320
   + 6.855172413793103 zLIS-YTO-A320 + 6.150574712643678 zLIS-BOS-A320
   + 1.96551724137931 zOPO-PDL-A320 + 0.5862068965517242 zOPO-LIS-A320
   + 0.2 zOPO-OPO-A320 + 1.629885057471264 zOPO-FNC-A320
   + 6.718390804597702 zOPO-YTO-A320 + 6.040229885057472 zOPO-BOS-A320
   + 1.320689655172414 zFNC-PDL-A320 + 1.318390804597701 zFNC-LIS-A320
   + 1.629885057471264 zFNC-OPO-A320 + 0.2 zFNC-FNC-A320
   + 6.539080459770116 zFNC-YTO-A320 + 5.775862068965518 zFNC-BOS-A320
   + 5.424137931034483 zYTO-PDL-A320 + 6.855172413793103 zYTO-LIS-A320
   + 6.718390804597702 zYTO-OPO-A320 + 6.539080459770116 zYTO-FNC-A320
   + 0.2 zYTO-YTO-A320 + 0.9942528735632183 zYTO-BOS-A320
   + 4.66896551724138 zBOS-PDL-A320 + 6.150574712643678 zBOS-LIS-A320
   + 6.040229885057472 zBOS-OPO-A320 + 5.775862068965518 zBOS-FNC-A320
   + 0.9942528735632183 zBOS-YTO-A320 + 0.2 zBOS-BOS-A320 <= 168
 rangePDL-PDLA310: zPDL-PDL-A310 <= 10000
 rangePDL-LISA310: zPDL-LIS-A310 <= 10000
 rangePDL-OPOA310: zPDL-OPO-A310 <= 10000
 rangePDL-FNCA310: zPDL-FNC-A310 <= 10000
 rangePDL-YTOA310: zPDL-YTO-A310 <= 10000
 rangePDL-BOSA310: zPDL-BOS-A310 <= 10000
 rangeLIS-PDLA310: zLIS-PDL-A310 <= 10000
 rangeLIS-LISA310: zLIS-LIS-A310 <= 10000
 rangeLIS-OPOA310: zLIS-OPO-A310 <= 10000
 rangeLIS-FNCA310: zLIS-FNC-A310 <= 10000
 rangeLIS-YTOA310: zLIS-YTO-A310 <= 10000
 rangeLIS-BOSA310: zLIS-BOS-A310 <= 10000
 rangeOPO-PDLA310: zOPO-PDL-A310 <= 10000
 rangeOPO-LISA310: zOPO-LIS-A310 <= 10000
 rangeOPO-OPOA310: zOPO-OPO-A310 <= 10000
 rangeOPO-FNCA310: zOPO-FNC-A310 <= 10000
 rangeOPO-YTOA310: zOPO-YTO-A310 <= 10000
 rangeOPO-BOSA310: zOPO-BOS-A310 <= 10000
 rangeFNC-PDLA310: zFNC-PDL-A310 <= 10000
 rangeFNC-LISA310: zFNC-LIS-A310 <= 10000
 rangeFNC-OPOA310: zFNC-OPO-A310 <= 10000
 rangeFNC-FNCA310: zFNC-FNC-A310 <= 10000
 rangeFNC-YTOA310: zFNC-YTO-A310 <= 10000
 rangeFNC-BOSA310: zFNC-BOS-A310 <= 10000
 rangeYTO-PDLA310: zYTO-PDL-A310 <= 10000
 rangeYTO-LISA310: zYTO-LIS-A310 <= 10000
 rangeYTO-OPOA310: zYTO-OPO-A310 <= 10000
 rangeYTO-FNCA310: zYTO-FNC-A310 <= 10000
 rangeYTO-YTOA310: zYTO-YTO-A310 <= 10000
 rangeYTO-BOSA310: zYTO-BOS-A310 <= 10000
 rangeBOS-PDLA310: zBOS-PDL-A310 <= 10000
 rangeBOS-LISA310: zBOS-LIS-A310 <= 10000
 rangeBOS-OPOA310: zBOS-OPO-A310 <= 10000
 rangeBOS-FNCA310: zBOS-FNC-A310 <= 10000
 rangeBOS-YTOA310: zBOS-YTO-A310 <= 10000
 rangeBOS-BOSA310: zBOS-BOS-A310 <= 10000
 rangePDL-PDLA320: zPDL-PDL-A320 <= 10000
 rangePDL-LISA320: zPDL-LIS-A320 <= 10000
 rangePDL-OPOA320: zPDL-OPO-A320 <= 10000
 rangePDL-FNCA320: zPDL-FNC-A320 <= 10000
 rangePDL-YTOA320: zPDL-YTO-A320 <= 10000
 rangePDL-BOSA320: zPDL-BOS-A320 <= 10000
 rangeLIS-PDLA320: zLIS-PDL-A320 <= 10000
 rangeLIS-LISA320: zLIS-LIS-A320 <= 10000
 rangeLIS-OPOA320: zLIS-OPO-A320 <= 10000
 rangeLIS-FNCA320: zLIS-FNC-A320 <= 10000
 rangeLIS-YTOA320: zLIS-YTO-A320 <= 0
 rangeLIS-BOSA320: zLIS-BOS-A320 <= 10000
 rangeOPO-PDLA320: zOPO-PDL-A320 <= 10000
 rangeOPO-LISA320: zOPO-LIS-A320 <= 10000
 rangeOPO-OPOA320: zOPO-OPO-A320 <= 10000
 rangeOPO-FNCA320: zOPO-FNC-A320 <= 10000
 rangeOPO-YTOA320: zOPO-YTO-A320 <= 0
 rangeOPO-BOSA320: zOPO-BOS-A320 <= 10000
 rangeFNC-PDLA320: zFNC-PDL-A320 <= 10000
 rangeFNC-LISA320: zFNC-LIS-A320 <= 10000
 rangeFNC-OPOA320: zFNC-OPO-A320 <= 10000
 rangeFNC-FNCA320: zFNC-FNC-A320 <= 10000
 rangeFNC-YTOA320: zFNC-YTO-A320 <= 0
 rangeFNC-BOSA320: zFNC-BOS-A320 <= 10000
 rangeYTO-PDLA320: zYTO-PDL-A320 <= 10000
 rangeYTO-LISA320: zYTO-LIS-A320 <= 0
 rangeYTO-OPOA320: zYTO-OPO-A320 <= 0
 rangeYTO-FNCA320: zYTO-FNC-A320 <= 0
 rangeYTO-YTOA320: zYTO-YTO-A320 <= 10000
 rangeYTO-BOSA320: zYTO-BOS-A320 <= 10000
 rangeBOS-PDLA320: zBOS-PDL-A320 <= 10000
 rangeBOS-LISA320: zBOS-LIS-A320 <= 10000
 rangeBOS-OPOA320: zBOS-OPO-A320 <= 10000
 rangeBOS-FNCA320: zBOS-FNC-A320 <= 10000
 rangeBOS-YTOA320: zBOS-YTO-A320 <= 10000
 rangeBOS-BOSA320: zBOS-BOS-A320 <= 10000
 budgetBOS-BOSA320: 5e+07 ACA310 + 7.5e+07 ACA320 <= 1.5e+08
Bounds
Generals
 wPDL-PDL wPDL-LIS wPDL-OPO wPDL-FNC wPDL-YTO wPDL-BOS wLIS-PDL wLIS-LIS
 wLIS-OPO wLIS-FNC wLIS-YTO wLIS-BOS wOPO-PDL wOPO-LIS wOPO-OPO wOPO-FNC
 wOPO-YTO wOPO-BOS wFNC-PDL wFNC-LIS wFNC-OPO wFNC-FNC wFNC-YTO wFNC-BOS
 wYTO-PDL wYTO-LIS wYTO-OPO wYTO-FNC wYTO-YTO wYTO-BOS wBOS-PDL wBOS-LIS
 wBOS-OPO wBOS-FNC wBOS-YTO wBOS-BOS xPDL-PDL xPDL-LIS xPDL-OPO xPDL-FNC
 xPDL-YTO xPDL-BOS xLIS-PDL xLIS-LIS xLIS-OPO xLIS-FNC xLIS-YTO xLIS-BOS
 xOPO-PDL xOPO-LIS xOPO-OPO xOPO-FNC xOPO-YTO xOPO-BOS xFNC-PDL xFNC-LIS
 xFNC-OPO xFNC-FNC xFNC-YTO xFNC-BOS xYTO-PDL xYTO-LIS xYTO-OPO xYTO-FNC
 xYTO-YTO xYTO-BOS xBOS-PDL xBOS-LIS xBOS-OPO xBOS-FNC xBOS-YTO xBOS-BOS
 zPDL-PDL-A310 zPDL-LIS-A310 zPDL-OPO-A310 zPDL-FNC-A310 zPDL-YTO-A310
 zPDL-BOS-A310 zLIS-PDL-A310 zLIS-LIS-A310 zLIS-OPO-A310 zLIS-FNC-A310
 zLIS-YTO-A310 zLIS-BOS-A310 zOPO-PDL-A310 zOPO-LIS-A310 zOPO-OPO-A310
 zOPO-FNC-A310 zOPO-YTO-A310 zOPO-BOS-A310 zFNC-PDL-A310 zFNC-LIS-A310
 zFNC-OPO-A310 zFNC-FNC-A310 zFNC-YTO-A310 zFNC-BOS-A310 zYTO-PDL-A310
 zYTO-LIS-A310 zYTO-OPO-A310 zYTO-FNC-A310 zYTO-YTO-A310 zYTO-BOS-A310
 zBOS-PDL-A310 zBOS-LIS-A310 zBOS-OPO-A310 zBOS-FNC-A310 zBOS-YTO-A310
 zBOS-BOS-A310 zPDL-PDL-A320 zPDL-LIS-A320 zPDL-OPO-A320 zPDL-FNC-A320
 zPDL-YTO-A320 zPDL-BOS-A320 zLIS-PDL-A320 zLIS-LIS-A320 zLIS-OPO-A320
 zLIS-FNC-A320 zLIS-YTO-A320 zLIS-BOS-A320 zOPO-PDL-A320 zOPO-LIS-A320
 zOPO-OPO-A320 zOPO-FNC-A320 zOPO-YTO-A320 zOPO-BOS-A320 zFNC-PDL-A320
 zFNC-LIS-A320 zFNC-OPO-A320 zFNC-FNC-A320 zFNC-YTO-A320 zFNC-BOS-A320
 zYTO-PDL-A320 zYTO-LIS-A320 zYTO-OPO-A320 zYTO-FNC-A320 zYTO-YTO-A320
 zYTO-BOS-A320 zBOS-PDL-A320 zBOS-LIS-A320 zBOS-OPO-A320 zBOS-FNC-A320
 zBOS-YTO-A320 zBOS-BOS-A320 ACA310 ACA320
End
